<number of tasks>
89

<cycle time>
97

<task times>
1 28
2 17
3 7
4 10
5 12
6 16
7 13
8 8
9 13
10 24
11 16
12 24
13 12
14 20
15 22
16 22
17 22
18 47
19 6
20 12
21 6
22 22
23 7
24 14
25 68
26 15
27 8
28 74
29 32
30 11
31 18
32 15
33 42
34 27
35 38
36 38
37 26
38 35
39 31
40 8
41 14
42 8
43 8
44 8
45 17
46 7
47 19
48 12
49 24
50 26
51 22
52 14
53 27
54 60
55 4
56 2
57 1
58 9
59 5
60 6
61 7
62 12
63 2
64 11
65 14
66 6
67 21
68 14
69 1
70 6
71 21
72 11
73 14
74 28
75 12
76 11
77 30
78 22
79 14
80 31
81 18
82 16
83 7
84 38
85 8
86 31
87 29
88 12
89 18

<precedence relations>
1,2
2,3
3,4
4,5
4,6
4,7
4,8
4,9
5,10
6,11
7,12
8,18
9,18
10,14
11,12
12,13
13,14
14,15
14,16
15,17
16,54
17,18
18,19
18,20
19,22
20,21
20,28
21,54
22,23
23,24
24,25
25,26
25,27
25,29
26,37
27,33
28,29
29,31
30,54
31,32
32,33
33,34
34,35
35,36
35,37
36,38
37,38
38,39
39,40
39,41
39,42
39,43
40,44
41,53
42,53
43,45
44,52
45,46
46,47
47,48
47,49
49,50
50,51
51,52
52,53
53,68
53,69
53,70
53,71
54,55
55,56
56,57
57,58
57,59
57,60
57,61
57,62
57,63
57,64
57,65
57,66
58,67
59,67
60,67
61,67
62,67
63,67
64,67
65,67
66,67
67,73
68,72
69,72
70,72
71,73
72,78
72,80
73,74
74,75
74,76
75,77
76,81
77,78
78,79
79,81
80,81
81,82
81,84
81,85
82,83
83,86
84,86
85,86
86,87
87,88
87,89

<setup times forward>
4,5:5
4,7:5
4,9:2
5,6:5
5,8:5
5,9:7
5,13:7
5,30:5
6,5:5
6,7:5
6,9:2
6,10:5
6,11:5
7,6:5
7,8:5
7,9:7
7,30:5
8,5:5
8,7:5
8,9:2
8,10:5
8,11:5
8,12:5
8,13:2
8,14:2
8,15:2
8,17:2
8,18:2
9,5:7
9,6:2
9,7:7
9,8:2
9,10:7
9,11:7
9,12:7
9,16:2
9,18:4
9,30:2
10,6:5
10,8:5
10,9:7
10,13:7
10,14:7
10,30:5
11,8:5
11,9:7
11,30:5
12,8:5
12,9:7
12,13:7
12,30:5
13,5:7
13,8:2
13,10:7
13,30:2
14,8:2
14,16:2
14,30:2
15,8:2
15,16:2
15,30:2
16,9:2
16,15:2
16,17:2
16,18:2
16,19:2
16,20:2
16,21:1
16,22:2
16,23:2
16,24:1
16,25:1
16,26:3
16,27:1
16,28:3
16,33:4
16,34:4
16,35:2
16,36:2
16,37:6
16,38:6
16,39:6
16,40:1
16,41:1
16,42:1
16,43:1
16,44:1
16,45:1
16,46:1
16,47:2
16,48:6
16,49:2
16,50:2
16,51:2
16,52:4
16,53:4
16,54:3
16,68:4
16,69:7
16,70:7
16,71:4
16,72:7
16,80:7
17,8:2
17,16:2
17,18:4
17,30:2
18,16:2
18,30:2
19,16:2
19,21:1
19,28:5
19,30:2
19,54:1
19,55:1
19,56:1
19,57:1
19,58:4
19,59:8
19,61:3
19,62:1
19,63:1
19,64:4
19,65:1
19,66:3
19,67:2
20,16:2
20,21:1
20,24:1
20,25:1
20,26:5
20,27:1
20,28:5
20,30:2
21,16:1
21,19:1
21,22:1
21,23:1
21,26:4
21,28:4
21,29:1
21,30:1
21,31:1
21,32:1
21,33:5
21,34:5
21,35:3
21,36:3
21,37:7
21,38:7
21,39:7
21,40:2
21,41:2
21,42:2
21,43:2
21,44:2
21,45:2
21,46:2
21,47:1
21,48:7
21,49:1
21,50:1
21,51:1
21,52:3
21,53:3
21,54:2
21,68:3
21,69:8
21,70:8
21,71:3
21,72:8
21,80:8
22,16:2
22,21:1
22,28:5
22,30:2
22,54:1
22,55:1
22,56:1
22,57:1
22,58:4
22,59:8
22,61:3
22,62:1
22,63:1
22,64:4
22,65:1
22,66:3
22,67:2
23,16:2
23,21:1
23,24:1
23,28:5
23,30:2
23,54:1
23,55:1
23,56:1
23,57:1
23,58:4
23,59:8
23,61:3
23,62:1
23,63:1
23,64:4
23,65:1
23,66:3
23,67:2
24,16:1
24,20:1
24,28:4
24,30:1
24,54:2
24,55:2
24,56:2
24,57:2
24,58:3
24,59:7
24,60:1
24,61:2
24,62:2
24,63:2
24,64:3
24,65:2
24,66:2
24,67:3
25,16:1
25,20:1
25,26:4
25,28:4
25,29:1
25,30:1
25,54:2
25,55:2
25,56:2
25,57:2
25,58:3
25,59:7
25,60:1
25,61:2
25,62:2
25,63:2
25,64:3
25,65:2
25,66:2
25,67:3
26,16:3
26,20:5
26,21:4
26,27:4
26,29:3
26,30:3
26,31:3
26,32:3
26,33:1
26,34:1
26,35:1
26,36:1
26,37:3
26,54:6
26,55:6
26,56:6
26,57:6
26,58:1
26,59:3
26,60:5
26,61:2
26,62:6
26,63:6
26,64:1
26,65:6
26,66:2
26,67:7
27,16:1
27,20:1
27,26:4
27,28:4
27,29:1
27,30:1
27,31:1
27,32:1
27,33:5
27,54:2
27,55:2
27,56:2
27,57:2
27,58:3
27,59:7
27,60:1
27,61:2
27,62:2
27,63:2
27,64:3
27,65:2
27,66:2
27,67:3
28,16:3
28,19:5
28,21:4
28,22:5
28,23:5
28,24:4
28,25:4
28,27:4
28,29:3
28,30:3
28,54:6
28,55:6
28,56:6
28,57:6
28,58:1
28,59:3
28,60:5
28,61:2
28,62:6
28,63:6
28,64:1
28,65:6
28,66:2
28,67:7
29,21:1
29,26:3
29,27:1
29,54:3
29,55:3
29,56:3
29,57:3
29,58:2
29,59:6
29,60:2
29,61:1
29,62:3
29,63:3
29,64:2
29,65:3
29,66:1
29,67:4
30,5:5
30,7:5
30,9:2
30,10:5
30,11:5
30,12:5
30,13:2
30,14:2
30,15:2
30,17:2
30,18:2
30,19:2
30,20:2
30,21:1
30,22:2
30,23:2
30,24:1
30,25:1
30,26:3
30,27:1
30,28:3
30,33:4
30,34:4
30,35:2
30,36:2
30,37:6
30,38:6
30,39:6
30,40:1
30,41:1
30,42:1
30,43:1
30,44:1
30,45:1
30,46:1
30,47:2
30,48:6
30,49:2
30,50:2
30,51:2
30,52:4
30,53:4
30,54:3
30,68:4
30,69:7
30,70:7
30,71:4
30,72:7
30,80:7
31,21:1
31,26:3
31,27:1
31,54:3
31,55:3
31,56:3
31,57:3
31,58:2
31,59:6
31,60:2
31,61:1
31,62:3
31,63:3
31,64:2
31,65:3
31,66:1
31,67:4
32,21:1
32,26:3
32,27:1
32,33:4
32,54:3
32,55:3
32,56:3
32,57:3
32,58:2
32,59:6
32,60:2
32,61:1
32,62:3
32,63:3
32,64:2
32,65:3
32,66:1
32,67:4
33,16:4
33,21:5
33,26:1
33,30:4
33,54:7
33,55:7
33,56:7
33,57:7
33,58:2
33,59:2
33,60:6
33,61:3
33,62:7
33,63:7
33,64:2
33,65:7
33,66:3
33,67:8
34,16:4
34,21:5
34,26:1
34,30:4
34,35:2
34,54:7
34,55:7
34,56:7
34,57:7
34,58:2
34,59:2
34,60:6
34,61:3
34,62:7
34,63:7
34,64:2
34,65:7
34,66:3
34,67:8
35,16:2
35,21:3
35,26:1
35,30:2
35,37:4
35,54:5
35,55:5
35,56:5
35,57:5
35,59:4
35,60:4
35,61:1
35,62:5
35,63:5
35,65:5
35,66:1
35,67:6
36,16:2
36,21:3
36,26:1
36,30:2
36,37:4
36,38:4
36,54:5
36,55:5
36,56:5
36,57:5
36,59:4
36,60:4
36,61:1
36,62:5
36,63:5
36,65:5
36,66:1
36,67:6
37,16:6
37,21:7
37,30:6
37,36:4
37,54:9
37,55:9
37,56:9
37,57:9
37,58:4
37,60:8
37,61:5
37,62:9
37,63:9
37,64:4
37,65:9
37,66:5
37,67:10
38,16:6
38,21:7
38,30:6
38,54:9
38,55:9
38,56:9
38,57:9
38,58:4
38,60:8
38,61:5
38,62:9
38,63:9
38,64:4
38,65:9
38,66:5
38,67:10
39,16:6
39,21:7
39,30:6
39,40:5
39,41:5
39,42:5
39,43:5
39,54:9
39,55:9
39,56:9
39,57:9
39,58:4
39,60:8
39,61:5
39,62:9
39,63:9
39,64:4
39,65:9
39,66:5
39,67:10
40,16:1
40,21:2
40,30:1
40,47:3
40,48:5
40,49:3
40,50:3
40,51:3
40,54:4
40,55:4
40,56:4
40,57:4
40,58:1
40,59:5
40,60:3
40,62:4
40,63:4
40,64:1
40,65:4
40,67:5
41,16:1
41,21:2
41,30:1
41,47:3
41,48:5
41,49:3
41,50:3
41,51:3
41,52:5
41,53:5
41,54:4
41,55:4
41,56:4
41,57:4
41,58:1
41,59:5
41,60:3
41,62:4
41,63:4
41,64:1
41,65:4
41,67:5
42,16:1
42,21:2
42,30:1
42,47:3
42,48:5
42,49:3
42,50:3
42,51:3
42,52:5
42,53:5
42,54:4
42,55:4
42,56:4
42,57:4
42,58:1
42,59:5
42,60:3
42,62:4
42,63:4
42,64:1
42,65:4
42,67:5
43,16:1
43,21:2
43,30:1
43,54:4
43,55:4
43,56:4
43,57:4
43,58:1
43,59:5
43,60:3
43,62:4
43,63:4
43,64:1
43,65:4
43,67:5
44,16:1
44,21:2
44,30:1
44,47:3
44,48:5
44,49:3
44,50:3
44,51:3
44,52:5
44,54:4
44,55:4
44,56:4
44,57:4
44,58:1
44,59:5
44,60:3
44,62:4
44,63:4
44,64:1
44,65:4
44,67:5
45,16:1
45,21:2
45,30:1
45,54:4
45,55:4
45,56:4
45,57:4
45,58:1
45,59:5
45,60:3
45,62:4
45,63:4
45,64:1
45,65:4
45,67:5
46,16:1
46,21:2
46,30:1
46,47:3
46,54:4
46,55:4
46,56:4
46,57:4
46,58:1
46,59:5
46,60:3
46,62:4
46,63:4
46,64:1
46,65:4
46,67:5
47,16:2
47,21:1
47,30:2
47,40:3
47,41:3
47,42:3
47,44:3
47,48:8
47,54:1
47,55:1
47,56:1
47,57:1
47,58:4
47,59:8
47,61:3
47,62:1
47,63:1
47,64:4
47,65:1
47,66:3
47,67:2
48,16:6
48,21:7
48,30:6
48,40:5
48,41:5
48,42:5
48,44:5
48,49:8
48,50:8
48,51:8
48,52:10
48,53:10
48,54:9
48,55:9
48,56:9
48,57:9
48,58:4
48,60:8
48,61:5
48,62:9
48,63:9
48,64:4
48,65:9
48,66:5
48,67:10
48,68:10
48,69:1
48,70:1
48,71:10
48,72:1
48,73:1
48,74:1
48,79:11
48,80:1
48,81:11
48,82:11
48,83:5
48,84:11
48,85:11
48,86:5
48,87:5
48,88:5
48,89:5
49,16:2
49,21:1
49,30:2
49,40:3
49,41:3
49,42:3
49,44:3
49,48:8
49,54:1
49,55:1
49,56:1
49,57:1
49,58:4
49,59:8
49,61:3
49,62:1
49,63:1
49,64:4
49,65:1
49,66:3
49,67:2
50,16:2
50,21:1
50,30:2
50,40:3
50,41:3
50,42:3
50,44:3
50,48:8
50,54:1
50,55:1
50,56:1
50,57:1
50,58:4
50,59:8
50,61:3
50,62:1
50,63:1
50,64:4
50,65:1
50,66:3
50,67:2
51,16:2
51,21:1
51,30:2
51,40:3
51,41:3
51,42:3
51,44:3
51,48:8
51,52:2
51,54:1
51,55:1
51,56:1
51,57:1
51,58:4
51,59:8
51,61:3
51,62:1
51,63:1
51,64:4
51,65:1
51,66:3
51,67:2
52,16:4
52,21:3
52,30:4
52,41:5
52,42:5
52,48:10
52,54:1
52,55:1
52,56:1
52,57:1
52,58:6
52,59:10
52,60:2
52,61:5
52,62:1
52,63:1
52,64:6
52,65:1
52,66:5
53,16:4
53,21:3
53,30:4
53,48:10
53,54:1
53,55:1
53,56:1
53,57:1
53,58:6
53,59:10
53,60:2
53,61:5
53,62:1
53,63:1
53,64:6
53,65:1
53,66:5
53,69:11
53,70:11
54,19:1
54,22:1
54,23:1
54,24:2
54,25:2
54,26:6
54,27:2
54,28:6
54,29:3
54,31:3
54,32:3
54,33:7
54,34:7
54,35:5
54,36:5
54,37:9
54,38:9
54,39:9
54,40:4
54,41:4
54,42:4
54,43:4
54,44:4
54,45:4
54,46:4
54,47:1
54,48:9
54,49:1
54,50:1
54,51:1
54,52:1
54,53:1
54,68:1
54,69:10
54,70:10
54,71:1
54,72:10
54,80:10
55,19:1
55,22:1
55,23:1
55,24:2
55,25:2
55,26:6
55,27:2
55,28:6
55,29:3
55,31:3
55,32:3
55,33:7
55,34:7
55,35:5
55,36:5
55,37:9
55,38:9
55,39:9
55,40:4
55,41:4
55,42:4
55,43:4
55,44:4
55,45:4
55,46:4
55,47:1
55,48:9
55,49:1
55,50:1
55,51:1
55,52:1
55,53:1
55,68:1
55,69:10
55,70:10
55,71:1
55,72:10
55,80:10
56,19:1
56,22:1
56,23:1
56,24:2
56,25:2
56,26:6
56,27:2
56,28:6
56,29:3
56,31:3
56,32:3
56,33:7
56,34:7
56,35:5
56,36:5
56,37:9
56,38:9
56,39:9
56,40:4
56,41:4
56,42:4
56,43:4
56,44:4
56,45:4
56,46:4
56,47:1
56,48:9
56,49:1
56,50:1
56,51:1
56,52:1
56,53:1
56,68:1
56,69:10
56,70:10
56,71:1
56,72:10
56,80:10
57,19:1
57,22:1
57,23:1
57,24:2
57,25:2
57,26:6
57,27:2
57,28:6
57,29:3
57,31:3
57,32:3
57,33:7
57,34:7
57,35:5
57,36:5
57,37:9
57,38:9
57,39:9
57,40:4
57,41:4
57,42:4
57,43:4
57,44:4
57,45:4
57,46:4
57,47:1
57,48:9
57,49:1
57,50:1
57,51:1
57,52:1
57,53:1
57,58:5
57,59:9
57,60:1
57,61:4
57,64:5
57,66:4
57,68:1
57,69:10
57,70:10
57,71:1
57,72:10
57,80:10
58,19:4
58,22:4
58,23:4
58,24:3
58,25:3
58,26:1
58,27:3
58,28:1
58,29:2
58,31:2
58,32:2
58,33:2
58,34:2
58,37:4
58,38:4
58,39:4
58,40:1
58,41:1
58,42:1
58,43:1
58,44:1
58,45:1
58,46:1
58,47:4
58,48:4
58,49:4
58,50:4
58,51:4
58,52:6
58,53:6
58,59:4
58,60:4
58,61:1
58,62:5
58,63:5
58,65:5
58,66:1
58,67:6
58,68:6
58,69:5
58,70:5
58,71:6
58,72:5
58,80:5
59,19:8
59,22:8
59,23:8
59,24:7
59,25:7
59,26:3
59,27:7
59,28:3
59,29:6
59,31:6
59,32:6
59,33:2
59,34:2
59,35:4
59,36:4
59,40:5
59,41:5
59,42:5
59,43:5
59,44:5
59,45:5
59,46:5
59,47:8
59,49:8
59,50:8
59,51:8
59,52:10
59,53:10
59,58:4
59,60:8
59,61:5
59,62:9
59,63:9
59,64:4
59,65:9
59,66:5
59,67:10
59,68:10
59,69:1
59,70:1
59,71:10
59,72:1
59,80:1
60,24:1
60,25:1
60,26:5
60,27:1
60,28:5
60,29:2
60,31:2
60,32:2
60,33:6
60,34:6
60,35:4
60,36:4
60,37:8
60,38:8
60,39:8
60,40:3
60,41:3
60,42:3
60,43:3
60,44:3
60,45:3
60,46:3
60,48:8
60,52:2
60,53:2
60,58:4
60,59:8
60,61:3
60,62:1
60,63:1
60,64:4
60,65:1
60,66:3
60,67:2
60,68:2
60,69:9
60,70:9
60,71:2
60,72:9
60,80:9
61,19:3
61,22:3
61,23:3
61,24:2
61,25:2
61,26:2
61,27:2
61,28:2
61,29:1
61,31:1
61,32:1
61,33:3
61,34:3
61,35:1
61,36:1
61,37:5
61,38:5
61,39:5
61,47:3
61,48:5
61,49:3
61,50:3
61,51:3
61,52:5
61,53:5
61,58:1
61,59:5
61,60:3
61,62:4
61,63:4
61,64:1
61,65:4
61,67:5
61,68:5
61,69:6
61,70:6
61,71:5
61,72:6
61,80:6
62,19:1
62,22:1
62,23:1
62,24:2
62,25:2
62,26:6
62,27:2
62,28:6
62,29:3
62,31:3
62,32:3
62,33:7
62,34:7
62,35:5
62,36:5
62,37:9
62,38:9
62,39:9
62,40:4
62,41:4
62,42:4
62,43:4
62,44:4
62,45:4
62,46:4
62,47:1
62,48:9
62,49:1
62,50:1
62,51:1
62,52:1
62,53:1
62,58:5
62,59:9
62,60:1
62,61:4
62,64:5
62,66:4
62,67:1
62,68:1
62,69:10
62,70:10
62,71:1
62,72:10
62,80:10
63,19:1
63,22:1
63,23:1
63,24:2
63,25:2
63,26:6
63,27:2
63,28:6
63,29:3
63,31:3
63,32:3
63,33:7
63,34:7
63,35:5
63,36:5
63,37:9
63,38:9
63,39:9
63,40:4
63,41:4
63,42:4
63,43:4
63,44:4
63,45:4
63,46:4
63,47:1
63,48:9
63,49:1
63,50:1
63,51:1
63,52:1
63,53:1
63,58:5
63,59:9
63,60:1
63,61:4
63,64:5
63,66:4
63,67:1
63,68:1
63,69:10
63,70:10
63,71:1
63,72:10
63,80:10
64,19:4
64,22:4
64,23:4
64,24:3
64,25:3
64,26:1
64,27:3
64,28:1
64,29:2
64,31:2
64,32:2
64,33:2
64,34:2
64,37:4
64,38:4
64,39:4
64,40:1
64,41:1
64,42:1
64,43:1
64,44:1
64,45:1
64,46:1
64,47:4
64,48:4
64,49:4
64,50:4
64,51:4
64,52:6
64,53:6
64,59:4
64,60:4
64,61:1
64,62:5
64,63:5
64,65:5
64,66:1
64,67:6
64,68:6
64,69:5
64,70:5
64,71:6
64,72:5
64,80:5
65,19:1
65,22:1
65,23:1
65,24:2
65,25:2
65,26:6
65,27:2
65,28:6
65,29:3
65,31:3
65,32:3
65,33:7
65,34:7
65,35:5
65,36:5
65,37:9
65,38:9
65,39:9
65,40:4
65,41:4
65,42:4
65,43:4
65,44:4
65,45:4
65,46:4
65,47:1
65,48:9
65,49:1
65,50:1
65,51:1
65,52:1
65,53:1
65,58:5
65,59:9
65,60:1
65,61:4
65,64:5
65,66:4
65,67:1
65,68:1
65,69:10
65,70:10
65,71:1
65,72:10
65,80:10
66,19:3
66,22:3
66,23:3
66,24:2
66,25:2
66,26:2
66,27:2
66,28:2
66,29:1
66,31:1
66,32:1
66,33:3
66,34:3
66,35:1
66,36:1
66,37:5
66,38:5
66,39:5
66,47:3
66,48:5
66,49:3
66,50:3
66,51:3
66,52:5
66,53:5
66,58:1
66,59:5
66,60:3
66,62:4
66,63:4
66,64:1
66,65:4
66,67:5
66,68:5
66,69:6
66,70:6
66,71:5
66,72:6
66,80:6
67,19:2
67,22:2
67,23:2
67,24:3
67,25:3
67,26:7
67,27:3
67,28:7
67,29:4
67,31:4
67,32:4
67,33:8
67,34:8
67,35:6
67,36:6
67,37:10
67,38:10
67,39:10
67,40:5
67,41:5
67,42:5
67,43:5
67,44:5
67,45:5
67,46:5
67,47:2
67,48:10
67,49:2
67,50:2
67,51:2
67,69:11
67,70:11
67,72:11
67,73:11
67,80:11
68,16:4
68,21:3
68,30:4
68,48:10
68,54:1
68,55:1
68,56:1
68,57:1
68,58:6
68,59:10
68,60:2
68,61:5
68,62:1
68,63:1
68,64:6
68,65:1
68,66:5
68,69:11
68,70:11
68,72:11
68,73:11
68,74:11
68,75:10
68,76:10
68,77:10
69,16:7
69,21:8
69,30:7
69,48:1
69,54:10
69,55:10
69,56:10
69,57:10
69,58:5
69,59:1
69,60:9
69,61:6
69,62:10
69,63:10
69,64:5
69,65:10
69,66:6
69,67:11
69,68:11
69,71:11
69,75:1
69,76:1
69,77:1
70,16:7
70,21:8
70,30:7
70,48:1
70,54:10
70,55:10
70,56:10
70,57:10
70,58:5
70,59:1
70,60:9
70,61:6
70,62:10
70,63:10
70,64:5
70,65:10
70,66:6
70,67:11
70,68:11
70,71:11
70,75:1
70,76:1
70,77:1
71,16:4
71,21:3
71,30:4
71,48:10
71,54:1
71,55:1
71,56:1
71,57:1
71,58:6
71,59:10
71,60:2
71,61:5
71,62:1
71,63:1
71,64:6
71,65:1
71,66:5
71,69:11
71,70:11
71,72:11
71,73:11
71,80:11
72,16:7
72,21:8
72,30:7
72,48:1
72,54:10
72,55:10
72,56:10
72,57:10
72,58:5
72,59:1
72,60:9
72,61:6
72,62:10
72,63:10
72,64:5
72,65:10
72,66:6
72,67:11
72,71:11
72,75:1
72,76:1
72,77:1
72,78:1
73,48:1
73,68:11
74,48:1
74,68:11
74,75:1
74,76:1
75,68:10
75,69:1
75,70:1
75,72:1
75,80:1
76,68:10
76,69:1
76,70:1
76,72:1
76,79:11
76,80:1
76,81:11
77,68:10
77,69:1
77,70:1
77,72:1
77,80:1
78,79:11
78,80:1
79,48:11
79,76:11
79,80:12
80,16:7
80,21:8
80,30:7
80,48:1
80,54:10
80,55:10
80,56:10
80,57:10
80,58:5
80,59:1
80,60:9
80,61:6
80,62:10
80,63:10
80,64:5
80,65:10
80,66:6
80,67:11
80,71:11
80,75:1
80,76:1
80,77:1
80,78:1
80,79:12
80,81:12
81,48:11
82,48:11
82,83:6
83,48:5
83,84:6
83,85:6
84,48:11
84,83:6
84,86:6
85,48:11
85,83:6
85,86:6
86,48:5
87,48:5
88,48:5
89,48:5

<setup times backward>
5,1:5
5,2:5
5,3:5
5,4:5
5,6:5
5,8:5
5,9:7
5,13:7
5,30:5
6,9:2
7,1:5
7,2:5
7,3:5
7,4:5
7,6:5
7,8:5
7,9:7
7,30:5
8,9:2
8,13:2
8,14:2
8,15:2
8,17:2
10,1:5
10,2:5
10,3:5
10,4:5
10,6:5
10,8:5
10,9:7
10,13:7
10,30:5
11,1:5
11,2:5
11,3:5
11,4:5
11,6:5
11,8:5
11,9:7
11,30:5
12,1:5
12,2:5
12,3:5
12,4:5
12,6:5
12,8:5
12,9:7
12,30:5
16,9:2
16,13:2
16,14:2
16,15:2
16,17:2
16,26:3
16,28:3
16,33:4
16,34:4
16,35:2
16,36:2
16,37:6
16,38:6
16,39:6
16,40:1
16,41:1
16,42:1
16,43:1
16,44:1
16,45:1
16,46:1
16,48:6
16,69:7
16,70:7
16,72:7
16,80:7
18,1:2
18,2:2
18,3:2
18,4:2
18,6:2
18,8:2
18,9:4
18,13:4
18,14:4
18,15:4
18,16:2
18,17:4
18,30:2
19,1:2
19,2:2
19,3:2
19,4:2
19,6:2
19,8:2
19,9:4
19,13:4
19,14:4
19,15:4
19,16:2
19,17:4
19,21:1
19,28:5
19,30:2
19,58:4
19,59:8
19,61:3
19,64:4
19,66:3
20,1:2
20,2:2
20,3:2
20,4:2
20,6:2
20,8:2
20,9:4
20,13:4
20,14:4
20,15:4
20,16:2
20,17:4
20,24:1
20,25:1
20,26:5
20,27:1
20,30:2
21,1:1
21,2:1
21,3:1
21,4:1
21,6:1
21,8:1
21,9:3
21,13:3
21,14:3
21,15:3
21,16:1
21,17:3
21,26:4
21,28:4
21,29:1
21,30:1
21,31:1
21,32:1
21,33:5
21,34:5
21,35:3
21,36:3
21,37:7
21,38:7
21,39:7
21,40:2
21,41:2
21,42:2
21,43:2
21,44:2
21,45:2
21,46:2
21,48:7
21,69:8
21,70:8
21,72:8
21,80:8
22,1:2
22,2:2
22,3:2
22,4:2
22,6:2
22,8:2
22,9:4
22,13:4
22,14:4
22,15:4
22,16:2
22,17:4
22,21:1
22,28:5
22,30:2
22,58:4
22,59:8
22,61:3
22,64:4
22,66:3
23,1:2
23,2:2
23,3:2
23,4:2
23,6:2
23,8:2
23,9:4
23,13:4
23,14:4
23,15:4
23,16:2
23,17:4
23,21:1
23,28:5
23,30:2
23,58:4
23,59:8
23,61:3
23,64:4
23,66:3
24,1:1
24,2:1
24,3:1
24,4:1
24,6:1
24,8:1
24,9:3
24,13:3
24,14:3
24,15:3
24,16:1
24,17:3
24,28:4
24,30:1
24,58:3
24,59:7
24,61:2
24,64:3
24,66:2
25,1:1
25,2:1
25,3:1
25,4:1
25,6:1
25,8:1
25,9:3
25,13:3
25,14:3
25,15:3
25,16:1
25,17:3
25,28:4
25,30:1
25,58:3
25,59:7
25,61:2
25,64:3
25,66:2
26,33:1
26,34:1
26,59:3
27,1:1
27,2:1
27,3:1
27,4:1
27,6:1
27,8:1
27,9:3
27,13:3
27,14:3
27,15:3
27,16:1
27,17:3
27,26:4
27,28:4
27,29:1
27,30:1
27,31:1
27,32:1
27,58:3
27,59:7
27,61:2
27,64:3
27,66:2
28,59:3
29,9:2
29,13:2
29,14:2
29,15:2
29,17:2
29,26:3
29,28:3
29,58:2
29,59:6
29,61:1
29,64:2
29,66:1
30,9:2
30,13:2
30,14:2
30,15:2
30,17:2
30,26:3
30,28:3
30,33:4
30,34:4
30,35:2
30,36:2
30,37:6
30,38:6
30,39:6
30,40:1
30,41:1
30,42:1
30,43:1
30,44:1
30,45:1
30,46:1
30,48:6
30,69:7
30,70:7
30,72:7
30,80:7
31,9:2
31,13:2
31,14:2
31,15:2
31,17:2
31,26:3
31,28:3
31,58:2
31,59:6
31,61:1
31,64:2
31,66:1
32,9:2
32,13:2
32,14:2
32,15:2
32,17:2
32,26:3
32,28:3
32,58:2
32,59:6
32,61:1
32,64:2
32,66:1
33,59:2
34,59:2
35,26:1
35,28:1
35,33:2
35,34:2
35,59:4
36,26:1
36,28:1
36,33:2
36,34:2
36,37:4
36,59:4
40,9:1
40,13:1
40,14:1
40,15:1
40,17:1
40,26:2
40,28:2
40,33:3
40,34:3
40,35:1
40,36:1
40,37:5
40,38:5
40,39:5
40,48:5
40,58:1
40,59:5
40,64:1
41,9:1
41,13:1
41,14:1
41,15:1
41,17:1
41,26:2
41,28:2
41,33:3
41,34:3
41,35:1
41,36:1
41,37:5
41,38:5
41,39:5
41,48:5
41,58:1
41,59:5
41,64:1
42,9:1
42,13:1
42,14:1
42,15:1
42,17:1
42,26:2
42,28:2
42,33:3
42,34:3
42,35:1
42,36:1
42,37:5
42,38:5
42,39:5
42,48:5
42,58:1
42,59:5
42,64:1
43,9:1
43,13:1
43,14:1
43,15:1
43,17:1
43,26:2
43,28:2
43,33:3
43,34:3
43,35:1
43,36:1
43,37:5
43,38:5
43,39:5
43,58:1
43,59:5
43,64:1
44,9:1
44,13:1
44,14:1
44,15:1
44,17:1
44,26:2
44,28:2
44,33:3
44,34:3
44,35:1
44,36:1
44,37:5
44,38:5
44,39:5
44,48:5
44,58:1
44,59:5
44,64:1
45,9:1
45,13:1
45,14:1
45,15:1
45,17:1
45,26:2
45,28:2
45,33:3
45,34:3
45,35:1
45,36:1
45,37:5
45,38:5
45,39:5
45,58:1
45,59:5
45,64:1
46,9:1
46,13:1
46,14:1
46,15:1
46,17:1
46,26:2
46,28:2
46,33:3
46,34:3
46,35:1
46,36:1
46,37:5
46,38:5
46,39:5
46,58:1
46,59:5
46,64:1
47,1:2
47,2:2
47,3:2
47,4:2
47,6:2
47,8:2
47,9:4
47,13:4
47,14:4
47,15:4
47,16:2
47,17:4
47,21:1
47,24:1
47,25:1
47,26:5
47,27:1
47,28:5
47,29:2
47,30:2
47,31:2
47,32:2
47,33:6
47,34:6
47,35:4
47,36:4
47,37:8
47,38:8
47,39:8
47,40:3
47,41:3
47,42:3
47,43:3
47,44:3
47,45:3
47,46:3
47,58:4
47,59:8
47,61:3
47,64:4
47,66:3
48,69:1
48,70:1
48,72:1
48,73:1
48,74:1
48,80:1
49,1:2
49,2:2
49,3:2
49,4:2
49,6:2
49,8:2
49,9:4
49,13:4
49,14:4
49,15:4
49,16:2
49,17:4
49,21:1
49,24:1
49,25:1
49,26:5
49,27:1
49,28:5
49,29:2
49,30:2
49,31:2
49,32:2
49,33:6
49,34:6
49,35:4
49,36:4
49,37:8
49,38:8
49,39:8
49,40:3
49,41:3
49,42:3
49,43:3
49,44:3
49,45:3
49,46:3
49,48:8
49,58:4
49,59:8
49,61:3
49,64:4
49,66:3
50,1:2
50,2:2
50,3:2
50,4:2
50,6:2
50,8:2
50,9:4
50,13:4
50,14:4
50,15:4
50,16:2
50,17:4
50,21:1
50,24:1
50,25:1
50,26:5
50,27:1
50,28:5
50,29:2
50,30:2
50,31:2
50,32:2
50,33:6
50,34:6
50,35:4
50,36:4
50,37:8
50,38:8
50,39:8
50,40:3
50,41:3
50,42:3
50,43:3
50,44:3
50,45:3
50,46:3
50,48:8
50,58:4
50,59:8
50,61:3
50,64:4
50,66:3
51,1:2
51,2:2
51,3:2
51,4:2
51,6:2
51,8:2
51,9:4
51,13:4
51,14:4
51,15:4
51,16:2
51,17:4
51,21:1
51,24:1
51,25:1
51,26:5
51,27:1
51,28:5
51,29:2
51,30:2
51,31:2
51,32:2
51,33:6
51,34:6
51,35:4
51,36:4
51,37:8
51,38:8
51,39:8
51,40:3
51,41:3
51,42:3
51,43:3
51,44:3
51,45:3
51,46:3
51,48:8
51,58:4
51,59:8
51,61:3
51,64:4
51,66:3
52,1:4
52,2:4
52,3:4
52,4:4
52,6:4
52,8:4
52,9:6
52,13:6
52,14:6
52,15:6
52,16:4
52,17:6
52,18:2
52,19:2
52,20:2
52,21:3
52,22:2
52,23:2
52,24:3
52,25:3
52,26:7
52,27:3
52,28:7
52,29:4
52,30:4
52,31:4
52,32:4
52,33:8
52,34:8
52,35:6
52,36:6
52,37:10
52,38:10
52,39:10
52,40:5
52,41:5
52,42:5
52,43:5
52,44:5
52,45:5
52,46:5
52,47:2
52,48:10
52,49:2
52,50:2
52,51:2
52,54:1
52,55:1
52,56:1
52,57:1
52,58:6
52,59:10
52,60:2
52,61:5
52,62:1
52,63:1
52,64:6
52,65:1
52,66:5
53,1:4
53,2:4
53,3:4
53,4:4
53,6:4
53,8:4
53,9:6
53,13:6
53,14:6
53,15:6
53,16:4
53,17:6
53,18:2
53,19:2
53,20:2
53,21:3
53,22:2
53,23:2
53,24:3
53,25:3
53,26:7
53,27:3
53,28:7
53,29:4
53,30:4
53,31:4
53,32:4
53,33:8
53,34:8
53,35:6
53,36:6
53,37:10
53,38:10
53,39:10
53,40:5
53,41:5
53,42:5
53,43:5
53,44:5
53,45:5
53,46:5
53,47:2
53,48:10
53,49:2
53,50:2
53,51:2
53,54:1
53,55:1
53,56:1
53,57:1
53,58:6
53,59:10
53,60:2
53,61:5
53,62:1
53,63:1
53,64:6
53,65:1
53,66:5
54,1:3
54,2:3
54,3:3
54,4:3
54,6:3
54,8:3
54,9:5
54,13:5
54,14:5
54,15:5
54,16:3
54,17:5
54,18:1
54,19:1
54,20:1
54,21:2
54,22:1
54,23:1
54,24:2
54,25:2
54,26:6
54,27:2
54,28:6
54,29:3
54,30:3
54,31:3
54,32:3
54,33:7
54,34:7
54,35:5
54,36:5
54,37:9
54,38:9
54,39:9
54,40:4
54,41:4
54,42:4
54,43:4
54,44:4
54,45:4
54,46:4
54,47:1
54,48:9
54,49:1
54,50:1
54,51:1
54,69:10
54,70:10
54,72:10
54,80:10
55,1:3
55,2:3
55,3:3
55,4:3
55,6:3
55,8:3
55,9:5
55,13:5
55,14:5
55,15:5
55,16:3
55,17:5
55,18:1
55,19:1
55,20:1
55,21:2
55,22:1
55,23:1
55,24:2
55,25:2
55,26:6
55,27:2
55,28:6
55,29:3
55,30:3
55,31:3
55,32:3
55,33:7
55,34:7
55,35:5
55,36:5
55,37:9
55,38:9
55,39:9
55,40:4
55,41:4
55,42:4
55,43:4
55,44:4
55,45:4
55,46:4
55,47:1
55,48:9
55,49:1
55,50:1
55,51:1
55,69:10
55,70:10
55,72:10
55,80:10
56,1:3
56,2:3
56,3:3
56,4:3
56,6:3
56,8:3
56,9:5
56,13:5
56,14:5
56,15:5
56,16:3
56,17:5
56,18:1
56,19:1
56,20:1
56,21:2
56,22:1
56,23:1
56,24:2
56,25:2
56,26:6
56,27:2
56,28:6
56,29:3
56,30:3
56,31:3
56,32:3
56,33:7
56,34:7
56,35:5
56,36:5
56,37:9
56,38:9
56,39:9
56,40:4
56,41:4
56,42:4
56,43:4
56,44:4
56,45:4
56,46:4
56,47:1
56,48:9
56,49:1
56,50:1
56,51:1
56,69:10
56,70:10
56,72:10
56,80:10
57,1:3
57,2:3
57,3:3
57,4:3
57,6:3
57,8:3
57,9:5
57,13:5
57,14:5
57,15:5
57,16:3
57,17:5
57,18:1
57,19:1
57,20:1
57,21:2
57,22:1
57,23:1
57,24:2
57,25:2
57,26:6
57,27:2
57,28:6
57,29:3
57,30:3
57,31:3
57,32:3
57,33:7
57,34:7
57,35:5
57,36:5
57,37:9
57,38:9
57,39:9
57,40:4
57,41:4
57,42:4
57,43:4
57,44:4
57,45:4
57,46:4
57,47:1
57,48:9
57,49:1
57,50:1
57,51:1
57,69:10
57,70:10
57,72:10
57,80:10
58,26:1
58,28:1
58,33:2
58,34:2
58,37:4
58,38:4
58,39:4
58,48:4
58,59:4
58,69:5
58,70:5
58,72:5
58,80:5
59,69:1
59,70:1
59,72:1
59,80:1
60,1:2
60,2:2
60,3:2
60,4:2
60,6:2
60,8:2
60,9:4
60,13:4
60,14:4
60,15:4
60,16:2
60,17:4
60,21:1
60,24:1
60,25:1
60,26:5
60,27:1
60,28:5
60,29:2
60,30:2
60,31:2
60,32:2
60,33:6
60,34:6
60,35:4
60,36:4
60,37:8
60,38:8
60,39:8
60,40:3
60,41:3
60,42:3
60,43:3
60,44:3
60,45:3
60,46:3
60,48:8
60,58:4
60,59:8
60,61:3
60,64:4
60,66:3
60,69:9
60,70:9
60,72:9
60,80:9
61,9:1
61,13:1
61,14:1
61,15:1
61,17:1
61,26:2
61,28:2
61,33:3
61,34:3
61,35:1
61,36:1
61,37:5
61,38:5
61,39:5
61,48:5
61,58:1
61,59:5
61,64:1
61,69:6
61,70:6
61,72:6
61,80:6
62,1:3
62,2:3
62,3:3
62,4:3
62,6:3
62,8:3
62,9:5
62,13:5
62,14:5
62,15:5
62,16:3
62,17:5
62,18:1
62,19:1
62,20:1
62,21:2
62,22:1
62,23:1
62,24:2
62,25:2
62,26:6
62,27:2
62,28:6
62,29:3
62,30:3
62,31:3
62,32:3
62,33:7
62,34:7
62,35:5
62,36:5
62,37:9
62,38:9
62,39:9
62,40:4
62,41:4
62,42:4
62,43:4
62,44:4
62,45:4
62,46:4
62,47:1
62,48:9
62,49:1
62,50:1
62,51:1
62,58:5
62,59:9
62,60:1
62,61:4
62,64:5
62,66:4
62,69:10
62,70:10
62,72:10
62,80:10
63,1:3
63,2:3
63,3:3
63,4:3
63,6:3
63,8:3
63,9:5
63,13:5
63,14:5
63,15:5
63,16:3
63,17:5
63,18:1
63,19:1
63,20:1
63,21:2
63,22:1
63,23:1
63,24:2
63,25:2
63,26:6
63,27:2
63,28:6
63,29:3
63,30:3
63,31:3
63,32:3
63,33:7
63,34:7
63,35:5
63,36:5
63,37:9
63,38:9
63,39:9
63,40:4
63,41:4
63,42:4
63,43:4
63,44:4
63,45:4
63,46:4
63,47:1
63,48:9
63,49:1
63,50:1
63,51:1
63,58:5
63,59:9
63,60:1
63,61:4
63,64:5
63,66:4
63,69:10
63,70:10
63,72:10
63,80:10
64,26:1
64,28:1
64,33:2
64,34:2
64,37:4
64,38:4
64,39:4
64,48:4
64,59:4
64,69:5
64,70:5
64,72:5
64,80:5
65,1:3
65,2:3
65,3:3
65,4:3
65,6:3
65,8:3
65,9:5
65,13:5
65,14:5
65,15:5
65,16:3
65,17:5
65,18:1
65,19:1
65,20:1
65,21:2
65,22:1
65,23:1
65,24:2
65,25:2
65,26:6
65,27:2
65,28:6
65,29:3
65,30:3
65,31:3
65,32:3
65,33:7
65,34:7
65,35:5
65,36:5
65,37:9
65,38:9
65,39:9
65,40:4
65,41:4
65,42:4
65,43:4
65,44:4
65,45:4
65,46:4
65,47:1
65,48:9
65,49:1
65,50:1
65,51:1
65,58:5
65,59:9
65,60:1
65,61:4
65,64:5
65,66:4
65,69:10
65,70:10
65,72:10
65,80:10
66,9:1
66,13:1
66,14:1
66,15:1
66,17:1
66,26:2
66,28:2
66,33:3
66,34:3
66,35:1
66,36:1
66,37:5
66,38:5
66,39:5
66,48:5
66,58:1
66,59:5
66,64:1
66,69:6
66,70:6
66,72:6
66,80:6
67,1:4
67,2:4
67,3:4
67,4:4
67,6:4
67,8:4
67,9:6
67,13:6
67,14:6
67,15:6
67,16:4
67,17:6
67,18:2
67,19:2
67,20:2
67,21:3
67,22:2
67,23:2
67,24:3
67,25:3
67,26:7
67,27:3
67,28:7
67,29:4
67,30:4
67,31:4
67,32:4
67,33:8
67,34:8
67,35:6
67,36:6
67,37:10
67,38:10
67,39:10
67,40:5
67,41:5
67,42:5
67,43:5
67,44:5
67,45:5
67,46:5
67,47:2
67,48:10
67,49:2
67,50:2
67,51:2
67,54:1
67,55:1
67,56:1
67,57:1
67,58:6
67,59:10
67,60:2
67,61:5
67,62:1
67,63:1
67,64:6
67,65:1
67,66:5
67,69:11
67,70:11
67,72:11
67,80:11
68,1:4
68,2:4
68,3:4
68,4:4
68,6:4
68,8:4
68,9:6
68,13:6
68,14:6
68,15:6
68,16:4
68,17:6
68,18:2
68,19:2
68,20:2
68,21:3
68,22:2
68,23:2
68,24:3
68,25:3
68,26:7
68,27:3
68,28:7
68,29:4
68,30:4
68,31:4
68,32:4
68,33:8
68,34:8
68,35:6
68,36:6
68,37:10
68,38:10
68,39:10
68,40:5
68,41:5
68,42:5
68,43:5
68,44:5
68,45:5
68,46:5
68,47:2
68,48:10
68,49:2
68,50:2
68,51:2
68,54:1
68,55:1
68,56:1
68,57:1
68,58:6
68,59:10
68,60:2
68,61:5
68,62:1
68,63:1
68,64:6
68,65:1
68,66:5
68,69:11
68,70:11
68,73:11
68,74:11
68,75:10
68,76:10
68,77:10
71,1:4
71,2:4
71,3:4
71,4:4
71,6:4
71,8:4
71,9:6
71,13:6
71,14:6
71,15:6
71,16:4
71,17:6
71,18:2
71,19:2
71,20:2
71,21:3
71,22:2
71,23:2
71,24:3
71,25:3
71,26:7
71,27:3
71,28:7
71,29:4
71,30:4
71,31:4
71,32:4
71,33:8
71,34:8
71,35:6
71,36:6
71,37:10
71,38:10
71,39:10
71,40:5
71,41:5
71,42:5
71,43:5
71,44:5
71,45:5
71,46:5
71,47:2
71,48:10
71,49:2
71,50:2
71,51:2
71,54:1
71,55:1
71,56:1
71,57:1
71,58:6
71,59:10
71,60:2
71,61:5
71,62:1
71,63:1
71,64:6
71,65:1
71,66:5
71,69:11
71,70:11
71,72:11
71,80:11
75,69:1
75,70:1
75,72:1
75,73:1
75,74:1
75,80:1
76,69:1
76,70:1
76,72:1
76,73:1
76,74:1
76,80:1
77,69:1
77,70:1
77,72:1
77,73:1
77,74:1
77,80:1
78,69:1
78,70:1
78,72:1
78,73:1
78,74:1
78,80:1
79,1:5
79,2:5
79,3:5
79,4:5
79,6:5
79,8:5
79,9:7
79,13:7
79,14:7
79,15:7
79,16:5
79,17:7
79,18:3
79,19:3
79,20:3
79,21:4
79,22:3
79,23:3
79,24:4
79,25:4
79,26:8
79,27:4
79,28:8
79,29:5
79,30:5
79,31:5
79,32:5
79,33:9
79,34:9
79,35:7
79,36:7
79,37:11
79,38:11
79,39:11
79,40:6
79,41:6
79,42:6
79,43:6
79,44:6
79,45:6
79,46:6
79,47:3
79,48:11
79,49:3
79,50:3
79,51:3
79,52:1
79,53:1
79,54:2
79,55:2
79,56:2
79,57:2
79,58:7
79,59:11
79,60:3
79,61:6
79,62:2
79,63:2
79,64:7
79,65:2
79,66:6
79,67:1
79,68:1
79,69:12
79,70:12
79,71:1
79,72:12
79,73:12
79,74:12
79,75:11
79,76:11
79,77:11
79,78:11
79,80:12
81,1:5
81,2:5
81,3:5
81,4:5
81,6:5
81,8:5
81,9:7
81,13:7
81,14:7
81,15:7
81,16:5
81,17:7
81,18:3
81,19:3
81,20:3
81,21:4
81,22:3
81,23:3
81,24:4
81,25:4
81,26:8
81,27:4
81,28:8
81,29:5
81,30:5
81,31:5
81,32:5
81,33:9
81,34:9
81,35:7
81,36:7
81,37:11
81,38:11
81,39:11
81,40:6
81,41:6
81,42:6
81,43:6
81,44:6
81,45:6
81,46:6
81,47:3
81,48:11
81,49:3
81,50:3
81,51:3
81,52:1
81,53:1
81,54:2
81,55:2
81,56:2
81,57:2
81,58:7
81,59:11
81,60:3
81,61:6
81,62:2
81,63:2
81,64:7
81,65:2
81,66:6
81,67:1
81,68:1
81,69:12
81,70:12
81,71:1
81,72:12
81,73:12
81,74:12
81,75:11
81,76:11
81,77:11
81,78:11
81,80:12
82,1:5
82,2:5
82,3:5
82,4:5
82,6:5
82,8:5
82,9:7
82,13:7
82,14:7
82,15:7
82,16:5
82,17:7
82,18:3
82,19:3
82,20:3
82,21:4
82,22:3
82,23:3
82,24:4
82,25:4
82,26:8
82,27:4
82,28:8
82,29:5
82,30:5
82,31:5
82,32:5
82,33:9
82,34:9
82,35:7
82,36:7
82,37:11
82,38:11
82,39:11
82,40:6
82,41:6
82,42:6
82,43:6
82,44:6
82,45:6
82,46:6
82,47:3
82,48:11
82,49:3
82,50:3
82,51:3
82,52:1
82,53:1
82,54:2
82,55:2
82,56:2
82,57:2
82,58:7
82,59:11
82,60:3
82,61:6
82,62:2
82,63:2
82,64:7
82,65:2
82,66:6
82,67:1
82,68:1
82,69:12
82,70:12
82,71:1
82,72:12
82,73:12
82,74:12
82,75:11
82,76:11
82,77:11
82,78:11
82,80:12
83,9:1
83,13:1
83,14:1
83,15:1
83,17:1
83,26:2
83,28:2
83,33:3
83,34:3
83,35:1
83,36:1
83,37:5
83,38:5
83,39:5
83,48:5
83,58:1
83,59:5
83,64:1
83,69:6
83,70:6
83,72:6
83,73:6
83,74:6
83,75:5
83,76:5
83,77:5
83,78:5
83,80:6
84,1:5
84,2:5
84,3:5
84,4:5
84,6:5
84,8:5
84,9:7
84,13:7
84,14:7
84,15:7
84,16:5
84,17:7
84,18:3
84,19:3
84,20:3
84,21:4
84,22:3
84,23:3
84,24:4
84,25:4
84,26:8
84,27:4
84,28:8
84,29:5
84,30:5
84,31:5
84,32:5
84,33:9
84,34:9
84,35:7
84,36:7
84,37:11
84,38:11
84,39:11
84,40:6
84,41:6
84,42:6
84,43:6
84,44:6
84,45:6
84,46:6
84,47:3
84,48:11
84,49:3
84,50:3
84,51:3
84,52:1
84,53:1
84,54:2
84,55:2
84,56:2
84,57:2
84,58:7
84,59:11
84,60:3
84,61:6
84,62:2
84,63:2
84,64:7
84,65:2
84,66:6
84,67:1
84,68:1
84,69:12
84,70:12
84,71:1
84,72:12
84,73:12
84,74:12
84,75:11
84,76:11
84,77:11
84,78:11
84,80:12
84,83:6
85,1:5
85,2:5
85,3:5
85,4:5
85,6:5
85,8:5
85,9:7
85,13:7
85,14:7
85,15:7
85,16:5
85,17:7
85,18:3
85,19:3
85,20:3
85,21:4
85,22:3
85,23:3
85,24:4
85,25:4
85,26:8
85,27:4
85,28:8
85,29:5
85,30:5
85,31:5
85,32:5
85,33:9
85,34:9
85,35:7
85,36:7
85,37:11
85,38:11
85,39:11
85,40:6
85,41:6
85,42:6
85,43:6
85,44:6
85,45:6
85,46:6
85,47:3
85,48:11
85,49:3
85,50:3
85,51:3
85,52:1
85,53:1
85,54:2
85,55:2
85,56:2
85,57:2
85,58:7
85,59:11
85,60:3
85,61:6
85,62:2
85,63:2
85,64:7
85,65:2
85,66:6
85,67:1
85,68:1
85,69:12
85,70:12
85,71:1
85,72:12
85,73:12
85,74:12
85,75:11
85,76:11
85,77:11
85,78:11
85,80:12
85,83:6
86,9:1
86,13:1
86,14:1
86,15:1
86,17:1
86,26:2
86,28:2
86,33:3
86,34:3
86,35:1
86,36:1
86,37:5
86,38:5
86,39:5
86,48:5
86,58:1
86,59:5
86,64:1
86,69:6
86,70:6
86,72:6
86,73:6
86,74:6
86,75:5
86,76:5
86,77:5
86,78:5
86,80:6
87,9:1
87,13:1
87,14:1
87,15:1
87,17:1
87,26:2
87,28:2
87,33:3
87,34:3
87,35:1
87,36:1
87,37:5
87,38:5
87,39:5
87,48:5
87,58:1
87,59:5
87,64:1
87,69:6
87,70:6
87,72:6
87,73:6
87,74:6
87,75:5
87,76:5
87,77:5
87,78:5
87,80:6
88,9:1
88,13:1
88,14:1
88,15:1
88,17:1
88,26:2
88,28:2
88,33:3
88,34:3
88,35:1
88,36:1
88,37:5
88,38:5
88,39:5
88,48:5
88,58:1
88,59:5
88,64:1
88,69:6
88,70:6
88,72:6
88,73:6
88,74:6
88,75:5
88,76:5
88,77:5
88,78:5
88,80:6
89,9:1
89,13:1
89,14:1
89,15:1
89,17:1
89,26:2
89,28:2
89,33:3
89,34:3
89,35:1
89,36:1
89,37:5
89,38:5
89,39:5
89,48:5
89,58:1
89,59:5
89,64:1
89,69:6
89,70:6
89,72:6
89,73:6
89,74:6
89,75:5
89,76:5
89,77:5
89,78:5
89,80:6

<end>

<optimal SALBP-1 value>
18


<rand seed>
467321153

<Lower Bounds>
Lm1=17
Lms1=17
Lm2=3
Lm3=6
Lm4=17
Best=17

<Optimal Stations (Iterations: 10)>
21
